39 7 166 124 82 41 197 153 109 65 21 176 130 84 37 190 142 94 47 196 146 96 46 193 140 88 34 181 126 71 16 160 103 48 186 127 67 8 147 83 22 158 93 28 163 97 27 159 89 18 148 74 2 128 55 177 101 20 139 61 179 98 11 123 42 152 63 172 79 187 92 195 102 199 100 192 87 182 73 165 54 138 29 114 191 69 145 24 104 167 35 107 162 25 80 136 189 43 86 132 171 10 49 75 111 129 150 168 178 185 194 188 180 169 151 131 112 76 50 13 156 108 52 184 110 32 135 51 137 33 115 183 44 90 125 161 175 1 198 154 118 68 19 122 38 91 106 133 170 60 14 164 78 23 116 85 3 105 31 119 121 99 53 157 15 0 45 56 173 30 174 26 141 120 155 58 117 17 64 59 113 57 4 40 134 5 66 149 81 36 95 70 77 62 6 12 9 72 143 144 

